data/inter2.mps
NAME         
ROWS
 L  R0001
 L  R0002
 N  R0003
COLUMNS
    INT1      'MARKER'                 'INTORG'
    C0001     R0001     964
    C0001     R0002     18
    C0001     R0003     184
    C0002     R0001     246
    C0002     R0002     58
    C0002     R0003     585
    C0003     R0001     662
    C0003     R0002     42
    C0003     R0003     423
    
    INT1END   'MARKER'                 'INTEND'
RHS
    B         R0001     970
    B         R0002     12
 
BOUNDS
 UP BOUND     C0001     3
 UP BOUND     C0002     4
 UP BOUND     C0003     5

ENDATA
