data/inter2.txt
N 3
M 5
LC 3
LC 4
LC 5
LR 1
LR 2
LR 3
LR 4
LR 5
LO 184
LO 585
LO 423
OS 1
IC 54
IC 269
IC 93
IB 270


